% Número de LINACs
m = 6;

% Capacidad diaria de cada LINAC (en intervalos de 15 minutos)
disponible = [| 8, 10, 8, 9, 10, 12, 10,   14, 16, 15, 14, 16, 18, 20,  48, 48, 48, 48, 48, 48, 48,
              | 9, 10, 12, 10, 14, 16, 14,   18, 20, 16, 18, 20, 18, 22, 48, 48, 48, 48, 48, 48, 48,
              | 12, 14, 10, 12, 15, 12, 16,   18, 22, 20, 22, 24, 18, 22, 48, 48, 48, 48, 48, 48, 48,
              | 14, 12, 14, 16, 12, 16, 12,   18, 24, 22, 24, 20, 22, 24, 48, 48, 48, 48, 48, 48, 48,
              | 10, 14, 12, 10, 14, 12, 16,   20, 24, 22, 20, 22, 20, 24, 48, 48, 48, 48, 48, 48, 48,
              | 12, 14, 16, 14, 12, 16, 14,   22, 20, 22, 24, 20, 22, 24, 48, 48, 48, 48, 48, 48, 48 |];

% Número de nuevos pacientes
paciente = 10;

% Día laborable en que se hizo la solicitud (1=lunes, 5=viernes)
solicitud = [1, 2, 3, 4, 5, 3, 2, 1, 4, 5];

% Número de sesiones por paciente
sesion = 6;

% Duración de cada sesión (en múltiplos de 15 minutos)
duracion = 
 [| 2, 3, 2, 2, 3, 4
  | 3, 3, 2, 3, 4, 2
  | 3, 4, 3, 2, 4, 3
  | 2, 2, 3, 2, 2, 3
  | 3, 2, 3, 4, 3, 2
  | 2, 3, 2, 2, 4, 3
  | 4, 2, 3, 4, 4, 3
  | 2, 4, 2, 3, 4, 2
  | 3, 2, 3, 2, 4, 3
  | 4, 3, 2, 4, 2, 4 |];

% Número de días de separación ideal entre sesiones
separacion = array2d(1..paciente, 2..sesion, 
  [ 2, 3, 2, 4, 2,
    2, 4, 3, 2, 3,
    2, 5, 2, 3, 4,
    1, 2, 3, 2, 4,
    2, 4, 3, 2, 4,
    1, 3, 2, 4, 3,
    3, 2, 4, 3, 2,
    2, 4, 2, 3, 4,
    2, 4, 3, 2, 3,
    3, 2, 4, 2, 3 ]);

